FILENAME:   /home/mcs001/s132664/testsets/IP/miplib2017/acc-tight2.mps.gz
SETTINGS:   settings_isopr_ostrowskidynamicbranching_avoidsubtreenodes
TIMELIMIT:  7200
OUTPUTNAME: final_miplib_symretope_if_extended_generating_set_cpx_v802__settings_isopr_ostrowskidynamicbranching_avoidsubtreenodes__2__
BINNAME:    bin/symmetries.linux.x86_64.gnu.opt.cpx
BASENAME:   acc-tight2.mps.gz
SEED:       2
@01 /home/mcs001/s132664/testsets/IP/miplib2017/acc-tight2.mps.gz ===========
@02 acc-tight2.mps.gz
@03 1686575677
SCIP version 8.0.2 [precision: 8 byte] [memory: block] [mode: optimized] [LP solver: CPLEX 20.1.0.0] [GitHash: 5f0473c]
Copyright (C) 2002-2022 Konrad-Zuse-Zentrum fuer Informationstechnik Berlin (ZIB)

Symmetry handling routines - (c) Marc Pfetsch, Thomas Rehn, Christopher Hojny.
[GitHash: a1587cb]


Turned off presolver <gateextraction>.
reading parameter file <../settings/settings_isopr_ostrowskidynamicbranching_avoidsubtreenodes.set> ...

Changed settings:
limits/time = 7200
limits/restarts = 0
randomization/randomseedshift = 2
constraints/orbitope/sepafreq = -1
constraints/orbitope/propfreq = 1
presolving/gateextraction/maxrounds = 0
propagating/isoprune/avoidsubtreenodes = TRUE
useisoprune = TRUE


solving problem ...

original problem has 1620 variables (1620 bin, 0 int, 0 impl, 0 cont) and 2520 constraints
presolving:
(round 1, exhaustive) 0 del vars, 0 del conss, 0 add conss, 0 chg bounds, 0 chg sides, 0 chg coeffs, 2493 upgd conss, 0 impls, 1710 clqs
   (0.1s) probing: 51/1620 (3.1%) - 0 fixings, 0 aggregations, 0 implications, 0 bound changes
   (0.1s) probing aborted: 50/50 successive totally useless probings
Required symmetry:			(1 bin, 0 int, 0 cont); (fixed: 0 bin, 1 int, 0 cont)
Time for symmetry detection:		0.01 	(matrix graph, 5922 nodes, 30654 edges)
Number of generators:			7 	(max: 1500)
Order of symmetry group:		40320
Log10 of symmetry group order:		4.6
Number of vars moved by some symmetry:	1584
Total time for symmetry detection:	0.02

Turned off presolver <domcol>.
Turned off presolver <components>.

presolving (2 rounds: 2 fast, 2 medium, 2 exhaustive):
 0 deleted vars, 0 deleted constraints, 0 added constraints, 0 tightened bounds, 0 added holes, 0 changed sides, 0 changed coefficients
 0 implications, 1710 cliques
presolved problem has 1620 variables (1620 bin, 0 int, 0 impl, 0 cont) and 2521 constraints
    387 constraints of type <knapsack>
   1710 constraints of type <setppc>
     27 constraints of type <linear>
    396 constraints of type <logicor>
      1 constraints of type <symmetries>
transformed objective value is always integral (scale: 1)
Presolving Time: 0.06

 time | node  | left  |LP iter|LP it/n|mem/heur|mdpt |frac |vars |cons |cols |rows |cuts |confs|strbr|  dualbound   | primalbound  |  gap   
  0.2s|     1 |     0 |    43 |     - |    26M |   0 | 464 |1620 |2618 |1620 |2520 |   0 |  96 |   0 | 0.000000e+00 |      --      |    Inf 
  1.7s|     1 |     2 |  5202 |     - |    27M |   0 | 464 |1620 |2619 |1620 |2520 |   0 |  97 |  11 | 0.000000e+00 |      --      |    Inf 
* 6.9s|    69 |     0 | 43434 | 562.2 |    LP  |  67 |   - |1620 |2619 |1620 |2520 |   0 |  97 |  11 | 0.000000e+00 | 0.000000e+00 |   0.00%

SCIP Status        : problem is solved [optimal solution found]
Solving Time (sec) : 6.88
Solving Nodes      : 69
Primal Bound       : +0.00000000000000e+00 (1 solutions)
Dual Bound         : +0.00000000000000e+00
Gap                : 0.00 %

Number of variables fixed to 0 by isomorphism pruning:	    21
Number of variables fixed to 1 by isomorphism pruning:	     0
@04 1686575684
